D011 Fe3C cementite (Pnma)
1.0
  5.090000  0.000000  0.000000
  0.000000  6.740000  0.000000
  0.000000  0.000000  4.523000
Fe C
12 4
Direct
  0.1834  0.0689  0.3317
  0.3166  0.9311  0.8317
  0.8166  0.5689  0.6683
  0.6834  0.4311  0.1683
  0.8166  0.9311  0.6683
  0.6834  0.0689  0.1683
  0.1834  0.4311  0.3317
  0.3166  0.5689  0.8317
  0.0388  0.2500  0.8522
  0.4612  0.7500  0.3522
  0.9612  0.7500  0.1478
  0.5388  0.2500  0.6478
  0.8764  0.2500  0.4426
  0.6236  0.7500  0.9426
  0.1236  0.7500  0.5574
  0.3764  0.2500  0.0574
